NAME:  test1
TYPE: AGTSP
COMMENT: gtsp tours
DIMENSION: 85 
GTSP_SETS: 13
EDGE_WEIGHT_TYPE: EXPLICIT
EDGE_WEIGHT_FORMAT: FULL_MATRIX 
EDGE_WEIGHT_SECTION
999999	0	999999	999999	999999	999999	999999	31279	31279	31279	31279	31271	999999	999999	31281	31281	31281	31281	31273	999999	999999	31265	31265	31265	31257	999999	999999	999999	31284	31284	31284	31284	31276	999999	999999	31260	31260	31252
999999	999999	0	999999	999999	999999	999999	31279	31279	31279	31279	31279	31271	999999	31281	31281	31281	31281	31281	31273	999999	31265	31265	31265	31265	31257	999999	999999	31284	31284	31284	31284	31284	31276	999999	31260	31260	31260
999999	999999	999999	0	999999	999999	999999	31279	31279	31279	31279	31279	31279	31271	31281	31281	31281	31281	31281	31281	31273	31265	31265	31265	31265	31265	31257	999999	31284	31284	31284	31284	31284	31284	31276	31260	31260	31260
999999	999999	999999	999999	0	999999	999999	31279	31279	31279	31279	31279	999999	999999	31281	31281	31281	31281	31281	999999	999999	31265	31265	31265	31265	31265	31265	31257	31284	31284	31284	31284	31284	999999	999999	31260	31260	31260
999999	999999	999999	999999	999999	0	999999	31279	31279	31279	31279	31279	31279	999999	31281	31281	31281	31281	31281	31281	999999	31265	31265	31265	31265	31265	31265	999999	31284	31284	31284	31284	31284	31284	999999	31260	31260	31260
999999	999999	999999	999999	999999	999999	0	31279	31279	31279	31279	31279	31279	31279	31281	31281	31281	31281	31281	31281	31281	31265	31265	31265	31265	31265	31265	31265	31284	31284	31284	31284	31284	31284	31284	31260	31260	31260
0	999999	999999	999999	999999	999999	999999	31279	31279	31279	31271	999999	999999	999999	31281	31281	31281	31273	999999	999999	999999	31265	31265	31257	999999	999999	999999	999999	31284	31284	31284	31276	999999	999999	999999	31260	31252	999999
31279	31279	31279	31279	31271	999999	999999	999999	0	999999	999999	999999	999999	999999	31291	31291	31291	31291	31291	31283	999999	31285	31285	31285	31285	31277	999999	999999	31268	31268	31268	31260	999999	999999	999999	31273	31273	31273
31279	31279	31279	31279	31279	31271	999999	999999	999999	0	999999	999999	999999	999999	31291	31291	31291	31291	31291	31291	31283	31285	31285	31285	31285	31285	31277	999999	31268	31268	31268	31268	31260	999999	999999	31273	31273	31273
31279	31279	31279	31279	31279	31279	31271	999999	999999	999999	0	999999	999999	999999	31291	31291	31291	31291	999999	999999	999999	31285	31285	31285	31285	31285	31285	31277	31268	31268	31268	31268	31268	31260	999999	31273	31273	31273
31279	31279	31279	31279	31279	999999	999999	999999	999999	999999	999999	0	999999	999999	31291	31291	31291	31291	31291	999999	999999	31285	31285	31285	31285	31285	999999	999999	31268	31268	31268	31268	31268	31268	31260	31273	31273	31273
31279	31279	31279	31279	31279	31279	999999	999999	999999	999999	999999	999999	0	999999	31291	31291	31291	31291	31291	31291	999999	31285	31285	31285	31285	31285	31285	999999	31268	31268	31268	31268	31268	31268	999999	31273	31273	31273
31279	31279	31279	31279	31279	31279	31279	999999	999999	999999	999999	999999	999999	0	31291	31291	31291	31291	31291	31291	31291	31285	31285	31285	31285	31285	31285	31285	31268	31268	31268	31268	31268	31268	31268	31273	31273	31273
31279	31279	31279	31271	999999	999999	999999	0	999999	999999	999999	999999	999999	999999	31291	31291	31291	31291	31283	999999	999999	31285	31285	31285	31277	999999	999999	999999	31268	31268	31260	999999	999999	999999	999999	31273	31273	31265
31281	31281	31281	31281	31273	999999	999999	31291	31291	31291	31291	31291	31283	999999	999999	0	999999	999999	999999	999999	999999	31296	31296	31296	31296	31296	31288	999999	31279	31279	31279	31279	31271	999999	999999	31273	31273	31273
31281	31281	31281	31281	31281	31273	999999	31291	31291	31291	31291	31291	31291	31283	999999	999999	0	999999	999999	999999	999999	31296	31296	31296	31296	31296	31296	31288	31279	31279	31279	31279	31279	31271	999999	31273	31273	31273
31281	31281	31281	31281	31281	31281	31273	31291	31291	31291	31291	999999	999999	999999	999999	999999	999999	0	999999	999999	999999	31296	31296	31296	31296	999999	999999	999999	31279	31279	31279	31279	31279	31279	31271	31273	31273	31273
31281	31281	31281	31281	31281	999999	999999	31291	31291	31291	31291	31291	999999	999999	999999	999999	999999	999999	0	999999	999999	31296	31296	31296	31296	31296	999999	999999	31279	31279	31279	31279	31279	999999	999999	31273	31273	31273
31281	31281	31281	31281	31281	31281	999999	31291	31291	31291	31291	31291	31291	999999	999999	999999	999999	999999	999999	0	999999	31296	31296	31296	31296	31296	31296	999999	31279	31279	31279	31279	31279	31279	999999	31273	31273	31273
31281	31281	31281	31281	31281	31281	31281	31291	31291	31291	31291	31291	31291	31291	999999	999999	999999	999999	999999	999999	0	31296	31296	31296	31296	31296	31296	31296	31279	31279	31279	31279	31279	31279	31279	31273	31273	31273
31281	31281	31281	31273	999999	999999	999999	31291	31291	31291	31291	31283	999999	999999	0	999999	999999	999999	999999	999999	999999	31296	31296	31296	31296	31288	999999	999999	31279	31279	31279	31271	999999	999999	999999	31273	31273	31265
31265	31265	31265	31257	999999	999999	999999	31285	31285	31285	31285	31277	999999	999999	31296	31296	31296	31296	31296	31288	999999	999999	0	999999	999999	999999	999999	999999	31296	31296	31296	31296	31296	31288	999999	31274	31274	31274
31265	31265	31265	31265	31257	999999	999999	31285	31285	31285	31285	31285	31277	999999	31296	31296	31296	31296	31296	31296	31288	999999	999999	0	999999	999999	999999	999999	31296	31296	31296	31296	31296	31296	31288	31274	31274	31274
31265	31265	31265	31265	31265	31257	999999	31285	31285	31285	31285	31285	31285	31277	31296	31296	31296	31296	999999	999999	999999	999999	999999	999999	0	999999	999999	999999	31296	31296	31296	31296	999999	999999	999999	31274	31274	31274
31265	31265	31265	31265	31265	31265	31257	31285	31285	31285	31285	31285	999999	999999	31296	31296	31296	31296	31296	999999	999999	999999	999999	999999	999999	0	999999	999999	31296	31296	31296	31296	31296	999999	999999	31274	31274	31274
31265	31265	31265	31265	31265	31265	999999	31285	31285	31285	31285	31285	31285	999999	31296	31296	31296	31296	31296	31296	999999	999999	999999	999999	999999	999999	0	999999	31296	31296	31296	31296	31296	31296	999999	31274	31274	31274
31265	31265	31265	31265	31265	31265	31265	31285	31285	31285	31285	31285	31285	31285	31296	31296	31296	31296	31296	31296	31296	999999	999999	999999	999999	999999	999999	0	31296	31296	31296	31296	31296	31296	31296	31274	31274	31274
31265	31265	31257	999999	999999	999999	999999	31285	31285	31285	31277	999999	999999	999999	31296	31296	31296	31296	31288	999999	999999	0	999999	999999	999999	999999	999999	999999	31296	31296	31296	31296	31288	999999	999999	31274	31274	31274
31284	31284	31284	31284	31276	999999	999999	31268	31268	31268	31260	999999	999999	999999	31279	31279	31279	31279	31271	999999	999999	31296	31296	31296	31296	31296	31288	999999	999999	0	999999	999999	999999	999999	999999	31274	31274	31274
31284	31284	31284	31284	31284	31276	999999	31268	31268	31268	31268	31260	999999	999999	31279	31279	31279	31279	31279	31271	999999	31296	31296	31296	31296	31296	31296	31288	999999	999999	0	999999	999999	999999	999999	31274	31274	31274
31284	31284	31284	31284	31284	31284	31276	31268	31268	31268	31268	31268	31260	999999	31279	31279	31279	31279	31279	31279	31271	31296	31296	31296	31296	999999	999999	999999	999999	999999	999999	0	999999	999999	999999	31274	31274	31274
31284	31284	31284	31284	31284	999999	999999	31268	31268	31268	31268	31268	31268	31260	31279	31279	31279	31279	31279	999999	999999	31296	31296	31296	31296	31296	999999	999999	999999	999999	999999	999999	0	999999	999999	31274	31274	31274
31284	31284	31284	31284	31284	31284	999999	31268	31268	31268	31268	31268	31268	999999	31279	31279	31279	31279	31279	31279	999999	31296	31296	31296	31296	31296	31296	999999	999999	999999	999999	999999	999999	0	999999	31274	31274	31274
31284	31284	31284	31284	31284	31284	31284	31268	31268	31268	31268	31268	31268	31268	31279	31279	31279	31279	31279	31279	31279	31296	31296	31296	31296	31296	31296	31296	999999	999999	999999	999999	999999	999999	0	31274	31274	31274
31284	31284	31284	31276	999999	999999	999999	31268	31268	31260	999999	999999	999999	999999	31279	31279	31279	31271	999999	999999	999999	31296	31296	31296	31296	31288	999999	999999	0	999999	999999	999999	999999	999999	999999	31274	31274	31266
31260	31260	31252	999999	999999	999999	999999	31273	31273	31273	31265	999999	999999	999999	31273	31273	31273	31265	999999	999999	999999	31274	31274	31274	31274	31266	999999	999999	31274	31274	31274	31266	999999	999999	999999	999999	0	999999
31260	31260	31260	31252	999999	999999	999999	31273	31273	31273	31273	31265	999999	999999	31273	31273	31273	31273	31265	999999	999999	31274	31274	31274	31274	31274	31266	999999	31274	31274	31274	31274	31266	999999	999999	999999	999999	0
31260	31260	31260	31260	31252	999999	999999	31273	31273	31273	31273	31273	31265	999999	31273	31273	31273	31273	31273	31265	999999	31274	31274	31274	31274	31274	31274	31266	31274	31274	31274	31274	31274	31266	999999	999999	999999	999999
GTSP_SET_SECTION:
1 1 2 3 4 5 6 7 -1
2 8 9 10 11 12 13 14 -1
3 15 16 17 18 19 20 21 -1
4 22 23 24 25 26 27 28 -1
5 29 30 31 32 33 34 35 -1
6 36 37 38 39 40 41 42 -1
7 43 44 45 46 47 48 49 -1
8 50 51 52 53 54 55 56 -1
9 57 58 59 60 61 62 63 -1
10 64 65 66 67 68 69 70 -1
11 71 72 73 74 75 76 77 -1
12 78 79 80 81 82 83 84 -1
13 85 -1
EOF